p cnf 12 50 
-6 -4 5 0
-11 -8 -1 0
-7 4 -10 0
-5 -12 -11 0
-11 -8 -2 0
3 12 9 0
4 -3 1 0
3 1 7 0
-9 3 6 0
-9 12 -5 0
-8 2 -4 0
-12 -2 -7 0
11 1 4 0
-9 3 -12 0
-12 11 10 0
6 3 2 0
1 11 -4 0
3 7 -1 0
-12 6 2 0
4 8 11 0
5 11 -12 0
12 -6 -3 0
12 3 6 0
-5 1 -8 0
-3 6 -10 0
12 -3 9 0
-5 7 12 0
8 -12 -10 0
-9 -7 3 0
-6 10 -3 0
-6 -4 8 0
3 1 -4 0
-6 -7 -12 0
-2 -3 5 0
-2 12 10 0
-3 2 -4 0
-8 -2 6 0
8 12 6 0
-5 -11 4 0
8 5 4 0
12 2 9 0
12 5 -11 0
12 -10 2 0
10 -7 -9 0
-5 7 6 0
-7 -10 6 0
-7 5 -1 0
-12 -4 -7 0
9 -3 10 0
10 -12 4 0
